c input_v4/binary/cnf_ALO_v4/10x10_120.cnf
c p 1320
c cnf 8832
s SATISFIABLE
c process-time: 0.01 seconds
-----
c input_v4/binary/cnf_ALO_v4/10x10_121.cnf
c p 1320
c cnf 8648
s SATISFIABLE
c process-time: 0.00 seconds
-----
c input_v4/binary/cnf_ALO_v4/10x10_122.cnf
c p 1320
c cnf 8703
s SATISFIABLE
c process-time: 0.00 seconds
-----
c input_v4/binary/cnf_ALO_v4/10x10_123.cnf
c p 1412
c cnf 9466
s SATISFIABLE
c process-time: 0.00 seconds
-----
c input_v4/binary/cnf_ALO_v4/10x10_124.cnf
c p 1320
c cnf 8666
s SATISFIABLE
c process-time: 0.00 seconds
-----
c input_v4/binary/cnf_ALO_v4/10x10_130.cnf
c p 1320
c cnf 8537
s SATISFIABLE
c process-time: 0.00 seconds
-----
c input_v4/binary/cnf_ALO_v4/10x10_131.cnf
c p 1052
c cnf 6659
s SATISFIABLE
c process-time: 0.00 seconds
-----
c input_v4/binary/cnf_ALO_v4/10x10_132.cnf
c p 1228
c cnf 8105
s SATISFIABLE
c process-time: 0.00 seconds
-----
c input_v4/binary/cnf_ALO_v4/10x10_133.cnf
c p 1412
c cnf 9589
s SATISFIABLE
c process-time: 0.00 seconds
-----
c input_v4/binary/cnf_ALO_v4/10x10_134.cnf
c p 1052
c cnf 6688
s SATISFIABLE
c process-time: 0.00 seconds
-----
c input_v4/binary/cnf_ALO_v4/10x10_135.cnf
c p 1228
c cnf 8072
s SATISFIABLE
c process-time: 0.00 seconds
-----
c input_v4/binary/cnf_ALO_v4/10x10_136.cnf
c p 1320
c cnf 8740
s SATISFIABLE
c process-time: 0.00 seconds
-----
c input_v4/binary/cnf_ALO_v4/10x10_137.cnf
c p 1320
c cnf 8740
s SATISFIABLE
c process-time: 0.00 seconds
-----
c input_v4/binary/cnf_ALO_v4/10x10_138.cnf
c p 1412
c cnf 9507
s SATISFIABLE
c process-time: 0.00 seconds
-----
c input_v4/binary/cnf_ALO_v4/10x10_139.cnf
c p 1228
c cnf 7990
s SATISFIABLE
c process-time: 0.00 seconds
-----
c input_v4/binary/cnf_ALO_v4/10x10_140.cnf
c p 1412
c cnf 9384
s SATISFIABLE
c process-time: 0.00 seconds
-----
c input_v4/binary/cnf_ALO_v4/10x10_141.cnf
c p 1320
c cnf 8813
s SATISFIABLE
c process-time: 0.00 seconds
-----
c input_v4/binary/cnf_ALO_v4/10x10_142.cnf
c p 1320
c cnf 8758
s SATISFIABLE
c process-time: 0.00 seconds
-----
c input_v4/binary/cnf_ALO_v4/10x10_143.cnf
c p 1228
c cnf 7973
s SATISFIABLE
c process-time: 0.00 seconds
-----
c input_v4/binary/cnf_ALO_v4/10x10_144.cnf
c p 1412
c cnf 9221
s SATISFIABLE
c process-time: 0.00 seconds
-----
c input_v4/binary/cnf_ALO_v4/10x10_145.cnf
c p 1412
c cnf 9343
s SATISFIABLE
c process-time: 0.00 seconds
-----
c input_v4/binary/cnf_ALO_v4/10x15_387.cnf
c p 2020
c cnf 14187
s SATISFIABLE
c process-time: 0.01 seconds
-----
c input_v4/binary/cnf_ALO_v4/10x15_388.cnf
c p 1878
c cnf 13245
s SATISFIABLE
c process-time: 0.02 seconds
-----
c input_v4/binary/cnf_ALO_v4/10x15_389.cnf
c p 1602
c cnf 10731
s SATISFIABLE
c process-time: 0.01 seconds
-----
c input_v4/binary/cnf_ALO_v4/10x15_390.cnf
c p 2020
c cnf 14372
s SATISFIABLE
c process-time: 0.01 seconds
-----
c input_v4/binary/cnf_ALO_v4/10x15_396.cnf
c p 1602
c cnf 10746
s SATISFIABLE
c process-time: 0.00 seconds
-----
c input_v4/binary/cnf_ALO_v4/10x15_397.cnf
c p 1878
c cnf 13063
s SATISFIABLE
c process-time: 0.01 seconds
-----
c input_v4/binary/cnf_ALO_v4/10x15_398.cnf
c p 1602
c cnf 10717
s SATISFIABLE
c process-time: 0.01 seconds
-----
c input_v4/binary/cnf_ALO_v4/10x15_399.cnf
c p 1878
c cnf 13079
s SATISFIABLE
c process-time: 0.00 seconds
-----
c input_v4/binary/cnf_ALO_v4/10x15_400.cnf
c p 1602
c cnf 10746
s SATISFIABLE
c process-time: 0.01 seconds
-----
c input_v4/binary/cnf_ALO_v4/10x18_186.cnf
c p 2956
c cnf 21988
s SATISFIABLE
c process-time: 0.08 seconds
-----
c input_v4/binary/cnf_ALO_v4/10x18_187.cnf
c p 2440
c cnf 17780
s SATISFIABLE
c process-time: 0.01 seconds
-----
c input_v4/binary/cnf_ALO_v4/10x18_198.cnf
c p 3472
c cnf 26209
s SATISFIABLE
c process-time: 0.01 seconds
-----
c input_v4/binary/cnf_ALO_v4/10x18_199.cnf
c p 2956
c cnf 22134
s SATISFIABLE
c process-time: 0.01 seconds
-----
c input_v4/binary/cnf_ALO_v4/10x18_200.cnf
c p 2784
c cnf 20618
s SATISFIABLE
c process-time: 0.09 seconds
-----
c input_v4/binary/cnf_ALO_v4/10x18_208.cnf
c p 3128
c cnf 23834
s SATISFIABLE
c process-time: 0.01 seconds
-----
c input_v4/binary/cnf_ALO_v4/10x18_209.cnf
c p 2784
c cnf 20932
s SATISFIABLE
c process-time: 0.01 seconds
-----
c input_v4/binary/cnf_ALO_v4/10x18_414.cnf
c p 3790
c cnf 29686
s SATISFIABLE
c process-time: 0.01 seconds
-----
c input_v4/binary/cnf_ALO_v4/10x18_415.cnf
c p 3472
c cnf 25966
s SATISFIABLE
c process-time: 0.01 seconds
-----
c input_v4/binary/cnf_ALO_v4/10x18_416.cnf
c p 2440
c cnf 17595
s SATISFIABLE
c process-time: 0.01 seconds
-----
c input_v4/binary/cnf_ALO_v4/10x18_417.cnf
c p 2784
c cnf 20574
s SATISFIABLE
c process-time: 0.05 seconds
-----
c input_v4/binary/cnf_ALO_v4/11x11_120.cnf
c p 1840
c cnf 12729
s SATISFIABLE
c process-time: 0.00 seconds
-----
c input_v4/binary/cnf_ALO_v4/11x11_121.cnf
c p 1501
c cnf 10118
s SATISFIABLE
c process-time: 0.00 seconds
-----
c input_v4/binary/cnf_ALO_v4/11x11_122.cnf
c p 1283
c cnf 8414
s SATISFIABLE
c process-time: 0.00 seconds
-----
c input_v4/binary/cnf_ALO_v4/11x11_123.cnf
c p 1840
c cnf 12730
s SATISFIABLE
c process-time: 0.01 seconds
-----
c input_v4/binary/cnf_ALO_v4/11x11_124.cnf
c p 1840
c cnf 12685
s SATISFIABLE
c process-time: 0.00 seconds
-----
c input_v4/binary/cnf_ALO_v4/11x11_130.cnf
c p 1614
c cnf 11047
s SATISFIABLE
c process-time: 0.01 seconds
-----
c input_v4/binary/cnf_ALO_v4/11x11_131.cnf
c p 1840
c cnf 12640
s SATISFIABLE
c process-time: 0.00 seconds
-----
c input_v4/binary/cnf_ALO_v4/11x11_132.cnf
c p 1727
c cnf 11981
s SATISFIABLE
c process-time: 0.01 seconds
-----
c input_v4/binary/cnf_ALO_v4/11x11_133.cnf
c p 1614
c cnf 11066
s SATISFIABLE
c process-time: 0.00 seconds
-----
c input_v4/binary/cnf_ALO_v4/11x11_134.cnf
c p 1840
c cnf 12730
s SATISFIABLE
c process-time: 0.01 seconds
-----
c input_v4/binary/cnf_ALO_v4/11x11_135.cnf
c p 1840
c cnf 12595
s SATISFIABLE
c process-time: 0.00 seconds
-----
c input_v4/binary/cnf_ALO_v4/11x11_136.cnf
c p 1283
c cnf 8342
s SATISFIABLE
c process-time: 0.01 seconds
-----
c input_v4/binary/cnf_ALO_v4/11x11_137.cnf
c p 1840
c cnf 12931
s SATISFIABLE
c process-time: 0.00 seconds
-----
c input_v4/binary/cnf_ALO_v4/11x11_138.cnf
c p 1840
c cnf 12730
s SATISFIABLE
c process-time: 0.00 seconds
-----
c input_v4/binary/cnf_ALO_v4/11x11_139.cnf
c p 1501
c cnf 10118
s SATISFIABLE
c process-time: 0.01 seconds
-----
c input_v4/binary/cnf_ALO_v4/11x11_140.cnf
c p 1840
c cnf 12909
s SATISFIABLE
c process-time: 0.01 seconds
-----
c input_v4/binary/cnf_ALO_v4/11x11_141.cnf
c p 1501
c cnf 10134
s SATISFIABLE
c process-time: 0.00 seconds
-----
c input_v4/binary/cnf_ALO_v4/11x11_142.cnf
c p 1614
c cnf 10992
s SATISFIABLE
c process-time: 0.01 seconds
-----
c input_v4/binary/cnf_ALO_v4/11x11_143.cnf
c p 1501
c cnf 10233
s SATISFIABLE
c process-time: 0.01 seconds
-----
c input_v4/binary/cnf_ALO_v4/11x11_144.cnf
c p 1614
c cnf 10992
s SATISFIABLE
c process-time: 0.00 seconds
-----
c input_v4/binary/cnf_ALO_v4/11x11_145.cnf
c p 1614
c cnf 11084
s SATISFIABLE
c process-time: 0.00 seconds
-----
c input_v4/binary/cnf_ALO_v4/12x12_120.cnf
c p 2480
c cnf 17960
s SATISFIABLE
c process-time: 0.01 seconds
-----
c input_v4/binary/cnf_ALO_v4/12x12_121.cnf
c p 1936
c cnf 13615
s SATISFIABLE
c process-time: 0.01 seconds
-----
c input_v4/binary/cnf_ALO_v4/12x12_122.cnf
c p 2344
c cnf 17021
s SATISFIABLE
c process-time: 0.00 seconds
-----
c input_v4/binary/cnf_ALO_v4/12x12_123.cnf
c p 2072
c cnf 14802
s SATISFIABLE
c process-time: 0.01 seconds
-----
c input_v4/binary/cnf_ALO_v4/12x12_124.cnf
c p 2344
c cnf 16948
s SATISFIABLE
c process-time: 0.02 seconds
-----
c input_v4/binary/cnf_ALO_v4/12x12_130.cnf
c p 2344
c cnf 16947
s SATISFIABLE
c process-time: 0.01 seconds
-----
c input_v4/binary/cnf_ALO_v4/12x12_131.cnf
c p 1936
c cnf 13707
s SATISFIABLE
c process-time: 0.01 seconds
-----
c input_v4/binary/cnf_ALO_v4/12x12_132.cnf
c p 2344
c cnf 16776
s SATISFIABLE
c process-time: 0.01 seconds
-----
c input_v4/binary/cnf_ALO_v4/12x12_133.cnf
c p 2344
c cnf 16654
s SATISFIABLE
c process-time: 0.00 seconds
-----
c input_v4/binary/cnf_ALO_v4/12x12_134.cnf
c p 2208
c cnf 16097
s SATISFIABLE
c process-time: 0.02 seconds
-----
c input_v4/binary/cnf_ALO_v4/12x12_135.cnf
c p 2072
c cnf 14741
s SATISFIABLE
c process-time: 0.01 seconds
-----
c input_v4/binary/cnf_ALO_v4/12x12_136.cnf
c p 2208
c cnf 15872
s SATISFIABLE
c process-time: 0.01 seconds
-----
c input_v4/binary/cnf_ALO_v4/12x12_137.cnf
c p 2072
c cnf 14823
s SATISFIABLE
c process-time: 0.01 seconds
-----
c input_v4/binary/cnf_ALO_v4/12x12_138.cnf
c p 2072
c cnf 14823
s SATISFIABLE
c process-time: 0.00 seconds
-----
c input_v4/binary/cnf_ALO_v4/12x12_139.cnf
c p 2208
c cnf 15850
s SATISFIABLE
c process-time: 0.01 seconds
-----
c input_v4/binary/cnf_ALO_v4/12x12_140.cnf
c p 2072
c cnf 14680
s SATISFIABLE
c process-time: 0.01 seconds
-----
c input_v4/binary/cnf_ALO_v4/12x12_141.cnf
c p 2072
c cnf 14884
s SATISFIABLE
c process-time: 0.01 seconds
-----
c input_v4/binary/cnf_ALO_v4/12x12_142.cnf
c p 1800
c cnf 12514
s SATISFIABLE
c process-time: 0.00 seconds
-----
c input_v4/binary/cnf_ALO_v4/12x12_143.cnf
c p 2480
c cnf 17827
s SATISFIABLE
c process-time: 0.01 seconds
-----
c input_v4/binary/cnf_ALO_v4/12x12_144.cnf
c p 1936
c cnf 13707
s SATISFIABLE
c process-time: 0.00 seconds
-----
c input_v4/binary/cnf_ALO_v4/12x12_145.cnf
c p 2072
c cnf 14762
s SATISFIABLE
c process-time: 0.01 seconds
-----
c input_v4/binary/cnf_ALO_v4/12x15_39.cnf
c p 3300
c cnf 24889
s SATISFIABLE
c process-time: 0.01 seconds
-----
c input_v4/binary/cnf_ALO_v4/12x15_43.cnf
c p 2956
c cnf 22165
s SATISFIABLE
c process-time: 0.02 seconds
-----
c input_v4/binary/cnf_ALO_v4/12x15_45.cnf
c p 2440
c cnf 17675
s SATISFIABLE
c process-time: 0.01 seconds
-----
c input_v4/binary/cnf_ALO_v4/12x15_46.cnf
c p 2612
c cnf 19224
s SATISFIABLE
c process-time: 0.01 seconds
-----
c input_v4/binary/cnf_ALO_v4/12x23_210.cnf
c p 7764
c cnf 66649
s SATISFIABLE
c process-time: 0.04 seconds
-----
c input_v4/binary/cnf_ALO_v4/13x13_120.cnf
c p 2769
c cnf 20738
s SATISFIABLE
c process-time: 0.01 seconds
-----
c input_v4/binary/cnf_ALO_v4/13x13_121.cnf
c p 2608
c cnf 19193
s SATISFIABLE
c process-time: 0.01 seconds
-----
c input_v4/binary/cnf_ALO_v4/13x13_122.cnf
c p 2286
c cnf 16517
s SATISFIABLE
c process-time: 0.01 seconds
-----
c input_v4/binary/cnf_ALO_v4/13x13_123.cnf
c p 2930
c cnf 21855
s SATISFIABLE
c process-time: 0.01 seconds
-----
c input_v4/binary/cnf_ALO_v4/13x13_124.cnf
c p 2769
c cnf 20591
s SATISFIABLE
c process-time: 0.01 seconds
-----
c input_v4/binary/cnf_ALO_v4/13x13_130.cnf
c p 2769
c cnf 20664
s SATISFIABLE
c process-time: 0.02 seconds
-----
c input_v4/binary/cnf_ALO_v4/13x13_131.cnf
c p 2608
c cnf 19373
s SATISFIABLE
c process-time: 0.01 seconds
-----
c input_v4/binary/cnf_ALO_v4/13x13_132.cnf
c p 2930
c cnf 21829
s SATISFIABLE
c process-time: 0.02 seconds
-----
c input_v4/binary/cnf_ALO_v4/13x13_133.cnf
c p 2608
c cnf 19283
s SATISFIABLE
c process-time: 0.01 seconds
-----
c input_v4/binary/cnf_ALO_v4/13x13_134.cnf
c p 2447
c cnf 17870
s SATISFIABLE
c process-time: 0.03 seconds
-----
c input_v4/binary/cnf_ALO_v4/13x13_135.cnf
c p 2608
c cnf 19171
s SATISFIABLE
c process-time: 0.01 seconds
-----
c input_v4/binary/cnf_ALO_v4/13x13_136.cnf
c p 2769
c cnf 20518
s SATISFIABLE
c process-time: 0.01 seconds
-----
c input_v4/binary/cnf_ALO_v4/13x13_137.cnf
c p 2769
c cnf 20518
s SATISFIABLE
c process-time: 0.01 seconds
-----
c input_v4/binary/cnf_ALO_v4/13x13_138.cnf
c p 2930
c cnf 21776
s SATISFIABLE
c process-time: 0.01 seconds
-----
c input_v4/binary/cnf_ALO_v4/13x13_139.cnf
c p 3091
c cnf 23075
s SATISFIABLE
c process-time: 0.01 seconds
-----
c input_v4/binary/cnf_ALO_v4/13x13_140.cnf
c p 2608
c cnf 19620
s SATISFIABLE
c process-time: 0.01 seconds
-----
c input_v4/binary/cnf_ALO_v4/13x13_141.cnf
c p 2447
c cnf 18075
s SATISFIABLE
c process-time: 0.01 seconds
-----
c input_v4/binary/cnf_ALO_v4/13x13_142.cnf
c p 2447
c cnf 17788
s SATISFIABLE
c process-time: 0.06 seconds
-----
c input_v4/binary/cnf_ALO_v4/13x13_143.cnf
c p 2447
c cnf 17870
s SATISFIABLE
c process-time: 0.02 seconds
-----
c input_v4/binary/cnf_ALO_v4/13x13_144.cnf
c p 3091
c cnf 23246
s SATISFIABLE
c process-time: 0.01 seconds
-----
c input_v4/binary/cnf_ALO_v4/13x13_145.cnf
c p 2930
c cnf 21882
s SATISFIABLE
c process-time: 0.01 seconds
-----
c input_v4/binary/cnf_ALO_v4/14x14_120.cnf
c p 3416
c cnf 26168
s SATISFIABLE
c process-time: 0.08 seconds
-----
c input_v4/binary/cnf_ALO_v4/14x14_121.cnf
c p 3604
c cnf 27893
s SATISFIABLE
c process-time: 0.02 seconds
-----
c input_v4/binary/cnf_ALO_v4/14x14_122.cnf
c p 3604
c cnf 27864
s SATISFIABLE
c process-time: 0.02 seconds
-----
c input_v4/binary/cnf_ALO_v4/14x14_123.cnf
c p 3228
c cnf 24549
s SATISFIABLE
c process-time: 0.02 seconds
-----
c input_v4/binary/cnf_ALO_v4/14x14_124.cnf
c p 3416
c cnf 26141
s SATISFIABLE
c process-time: 0.01 seconds
-----
c input_v4/binary/cnf_ALO_v4/14x14_130.cnf
c p 3228
c cnf 24817
s SATISFIABLE
c process-time: 0.01 seconds
-----
c input_v4/binary/cnf_ALO_v4/14x14_131.cnf
c p 3604
c cnf 27893
s SATISFIABLE
c process-time: 0.01 seconds
-----
c input_v4/binary/cnf_ALO_v4/14x14_132.cnf
c p 3792
c cnf 29450
s SATISFIABLE
c process-time: 0.01 seconds
-----
c input_v4/binary/cnf_ALO_v4/14x14_133.cnf
c p 3792
c cnf 29145
s SATISFIABLE
c process-time: 0.01 seconds
-----
c input_v4/binary/cnf_ALO_v4/14x14_134.cnf
c p 3604
c cnf 27807
s SATISFIABLE
c process-time: 0.03 seconds
-----
c input_v4/binary/cnf_ALO_v4/14x14_135.cnf
c p 3040
c cnf 23163
s SATISFIABLE
c process-time: 0.02 seconds
-----
c input_v4/binary/cnf_ALO_v4/14x14_136.cnf
c p 3040
c cnf 23118
s SATISFIABLE
c process-time: 0.06 seconds
-----
c input_v4/binary/cnf_ALO_v4/14x14_137.cnf
c p 3604
c cnf 27722
s SATISFIABLE
c process-time: 0.05 seconds
-----
c input_v4/binary/cnf_ALO_v4/14x14_138.cnf
c p 3604
c cnf 28092
s SATISFIABLE
c process-time: 0.04 seconds
-----
c input_v4/binary/cnf_ALO_v4/14x14_139.cnf
c p 3416
c cnf 26432
s SATISFIABLE
c process-time: 0.01 seconds
-----
c input_v4/binary/cnf_ALO_v4/14x14_140.cnf
c p 3792
c cnf 29419
s SATISFIABLE
c process-time: 0.01 seconds
-----
c input_v4/binary/cnf_ALO_v4/14x14_141.cnf
c p 3792
c cnf 29115
s SATISFIABLE
c process-time: 0.01 seconds
-----
c input_v4/binary/cnf_ALO_v4/14x14_142.cnf
c p 3604
c cnf 27950
s SATISFIABLE
c process-time: 0.01 seconds
-----
c input_v4/binary/cnf_ALO_v4/14x14_143.cnf
c p 3604
c cnf 27637
s SATISFIABLE
c process-time: 0.04 seconds
-----
c input_v4/binary/cnf_ALO_v4/14x14_144.cnf
c p 3040
c cnf 23118
s SATISFIABLE
c process-time: 0.01 seconds
-----
c input_v4/binary/cnf_ALO_v4/14x14_145.cnf
c p 3792
c cnf 29388
s SATISFIABLE
c process-time: 0.03 seconds
-----
c input_v4/binary/cnf_ALO_v4/14x24_105.cnf
c p 8852
c cnf 78780
s SATISFIABLE
c process-time: 0.23 seconds
-----
c input_v4/binary/cnf_ALO_v4/14x24_110.cnf
c p 8200
c cnf 72570
s SATISFIABLE
c process-time: 1s 0.62 seconds
-----
c input_v4/binary/cnf_ALO_v4/14x24_113.cnf
c p 9504
c cnf 84853
s SATISFIABLE
c process-time: 0.43 seconds
-----
c input_v4/binary/cnf_ALO_v4/14x24_117.cnf
c p 7874
c cnf 69487
s SATISFIABLE
c process-time: 0.49 seconds
-----
c input_v4/binary/cnf_ALO_v4/14x24_129.cnf
c p 8200
c cnf 72685
s SATISFIABLE
c process-time: 1s 1.00 seconds
-----
c input_v4/binary/cnf_ALO_v4/14x24_139.cnf
c p 8200
c cnf 72801
s SATISFIABLE
c process-time: 1s 1.22 seconds
-----
c input_v4/binary/cnf_ALO_v4/14x24_147.cnf
c p 8526
c cnf 75516
s SATISFIABLE
c process-time: 1s 0.96 seconds
-----
c input_v4/binary/cnf_ALO_v4/14x24_148.cnf
c p 6264
c cnf 51919
s SATISFIABLE
c process-time: 0.29 seconds
-----
c input_v4/binary/cnf_ALO_v4/14x24_157.cnf
c p 6592
c cnf 55098
s SATISFIABLE
c process-time: 0.09 seconds
-----
c input_v4/binary/cnf_ALO_v4/14x24_158.cnf
c p 5608
c cnf 45342
s SATISFIABLE
c process-time: 1s 0.70 seconds
-----
c input_v4/binary/cnf_ALO_v4/14x24_169.cnf
c p 6264
c cnf 51777
s SATISFIABLE
c process-time: 1s 1.22 seconds
-----
c input_v4/binary/cnf_ALO_v4/14x24_179.cnf
c p 5608
c cnf 45464
s SATISFIABLE
c process-time: 2s 2.25 seconds
-----
c input_v4/binary/cnf_ALO_v4/14x24_188.cnf
c p 8852
c cnf 79162
s SATISFIABLE
c process-time: 0.18 seconds
-----
c input_v4/binary/cnf_ALO_v4/14x24_189.cnf
c p 10156
c cnf 90296
s SATISFIABLE
c process-time: 0.21 seconds
-----
c input_v4/binary/cnf_ALO_v4/14x24_190.cnf
c p 5608
c cnf 45391
s SATISFIABLE
c process-time: 52s 51.68 seconds
-----
c input_v4/binary/cnf_ALO_v4/14x24_199.cnf
c p 5280
c cnf 42189
s SATISFIABLE
c process-time: 1s 1.49 seconds
-----
c input_v4/binary/cnf_ALO_v4/14x24_200.cnf
c p 5936
c cnf 48602
s SATISFIABLE
c process-time: 3s 2.92 seconds
-----
c input_v4/binary/cnf_ALO_v4/14x24_208.cnf
c p 8200
c cnf 72647
s SATISFIABLE
c process-time: 0.19 seconds
-----
c input_v4/binary/cnf_ALO_v4/14x24_209.cnf
c p 5936
c cnf 48655
s SATISFIABLE
c process-time: 1s 0.52 seconds
-----
c input_v4/binary/cnf_ALO_v4/14x24_218.cnf
c p 8200
c cnf 72916
s SATISFIABLE
c process-time: 0.37 seconds
-----
c input_v4/binary/cnf_ALO_v4/14x24_219.cnf
c p 6264
c cnf 51748
s SATISFIABLE
c process-time: 1s 1.14 seconds
-----
c input_v4/binary/cnf_ALO_v4/14x24_418.cnf
c p 7548
c cnf 66657
s SATISFIABLE
c process-time: 0.15 seconds
-----
c input_v4/binary/cnf_ALO_v4/14x24_419.cnf
c p 9504
c cnf 84528
s SATISFIABLE
c process-time: 0.25 seconds
-----
c input_v4/binary/cnf_ALO_v4/14x24_420.cnf
c p 5936
c cnf 48628
s SATISFIABLE
c process-time: 7s 6.85 seconds
-----
c input_v4/binary/cnf_ALO_v4/15x15_120.cnf
c p 4372
c cnf 34852
s SATISFIABLE
c process-time: 0.08 seconds
-----
c input_v4/binary/cnf_ALO_v4/15x15_121.cnf
c p 3721
c cnf 28967
s SATISFIABLE
c process-time: 0.01 seconds
-----
c input_v4/binary/cnf_ALO_v4/15x15_122.cnf
c p 4155
c cnf 32760
s SATISFIABLE
c process-time: 0.01 seconds
-----
c input_v4/binary/cnf_ALO_v4/15x15_123.cnf
c p 4372
c cnf 34608
s SATISFIABLE
c process-time: 0.04 seconds
-----
c input_v4/binary/cnf_ALO_v4/15x15_124.cnf
c p 4372
c cnf 34578
s SATISFIABLE
c process-time: 0.03 seconds
-----
c input_v4/binary/cnf_ALO_v4/15x15_130.cnf
c p 4155
c cnf 32788
s SATISFIABLE
c process-time: 0.01 seconds
-----
c input_v4/binary/cnf_ALO_v4/15x15_131.cnf
c p 4372
c cnf 34486
s SATISFIABLE
c process-time: 0.02 seconds
-----
c input_v4/binary/cnf_ALO_v4/15x15_132.cnf
c p 4372
c cnf 34608
s SATISFIABLE
c process-time: 0.03 seconds
-----
c input_v4/binary/cnf_ALO_v4/15x15_133.cnf
c p 4372
c cnf 34456
s SATISFIABLE
c process-time: 0.01 seconds
-----
c input_v4/binary/cnf_ALO_v4/15x15_134.cnf
c p 3938
c cnf 30898
s SATISFIABLE
c process-time: 0.18 seconds
-----
c input_v4/binary/cnf_ALO_v4/15x15_135.cnf
c p 4372
c cnf 34608
s SATISFIABLE
c process-time: 0.01 seconds
-----
c input_v4/binary/cnf_ALO_v4/15x15_136.cnf
c p 4372
c cnf 34760
s SATISFIABLE
c process-time: 0.02 seconds
-----
c input_v4/binary/cnf_ALO_v4/15x15_137.cnf
c p 4372
c cnf 34821
s SATISFIABLE
c process-time: 0.02 seconds
-----
c input_v4/binary/cnf_ALO_v4/15x15_138.cnf
c p 4372
c cnf 34608
s SATISFIABLE
c process-time: 0.02 seconds
-----
c input_v4/binary/cnf_ALO_v4/15x15_139.cnf
c p 4155
c cnf 32703
s SATISFIABLE
c process-time: 0.07 seconds
-----
c input_v4/binary/cnf_ALO_v4/15x15_140.cnf
c p 4372
c cnf 34669
s SATISFIABLE
c process-time: 0.01 seconds
-----
c input_v4/binary/cnf_ALO_v4/15x15_141.cnf
c p 4372
c cnf 34669
s SATISFIABLE
c process-time: 0.01 seconds
-----
c input_v4/binary/cnf_ALO_v4/15x15_142.cnf
c p 4372
c cnf 34517
s SATISFIABLE
c process-time: 0.01 seconds
-----
c input_v4/binary/cnf_ALO_v4/15x15_143.cnf
c p 4372
c cnf 34943
s SATISFIABLE
c process-time: 0.05 seconds
-----
c input_v4/binary/cnf_ALO_v4/15x15_144.cnf
c p 4372
c cnf 34761
s SATISFIABLE
c process-time: 0.02 seconds
-----
c input_v4/binary/cnf_ALO_v4/15x15_145.cnf
c p 4155
c cnf 32930
s SATISFIABLE
c process-time: 0.01 seconds
-----
c input_v4/binary/cnf_ALO_v4/15x20_307.cnf
c p 4412
c cnf 34480
s SATISFIABLE
c process-time: 6s 6.03 seconds
-----
c input_v4/binary/cnf_ALO_v4/15x20_308.cnf
c p 4704
c cnf 37347
s SATISFIABLE
c process-time: 0.45 seconds
-----
c input_v4/binary/cnf_ALO_v4/15x20_309.cnf
c p 4412
c cnf 34644
s SATISFIABLE
c process-time: 1s 1.33 seconds
-----
c input_v4/binary/cnf_ALO_v4/15x20_310.cnf
c p 5580
c cnf 45621
s SATISFIABLE
c process-time: 1s 0.71 seconds
-----
c input_v4/binary/cnf_ALO_v4/15x20_317.cnf
c p 5580
c cnf 45450
s SATISFIABLE
c process-time: 0.03 seconds
-----
c input_v4/binary/cnf_ALO_v4/15x20_318.cnf
c p 5580
c cnf 45507
s SATISFIABLE
c process-time: 0.04 seconds
-----
c input_v4/binary/cnf_ALO_v4/15x20_319.cnf
c p 5288
c cnf 42748
s SATISFIABLE
c process-time: 3s 3.16 seconds
-----
c input_v4/binary/cnf_ALO_v4/15x20_320.cnf
c p 5288
c cnf 42827
s SATISFIABLE
c process-time: 0.31 seconds
-----
c input_v4/binary/cnf_ALO_v4/17x17_100.cnf
c p 4528
c cnf 35848
s SATISFIABLE
c process-time: 1s 0.71 seconds
-----
c input_v4/binary/cnf_ALO_v4/17x17_104.cnf
c p 7025
c cnf 61328
s SATISFIABLE
c process-time: 0.20 seconds
-----
c input_v4/binary/cnf_ALO_v4/17x17_109.cnf
c p 6746
c cnf 58475
s SATISFIABLE
c process-time: 0.16 seconds
-----
c input_v4/binary/cnf_ALO_v4/17x17_112.cnf
c p 7304
c cnf 63553
s SATISFIABLE
c process-time: 0.03 seconds
-----
c input_v4/binary/cnf_ALO_v4/17x17_116.cnf
c p 6467
c cnf 55775
s SATISFIABLE
c process-time: 0.03 seconds
-----
c input_v4/binary/cnf_ALO_v4/17x17_120.cnf
c p 4809
c cnf 38428
s SATISFIABLE
c process-time: 1s 0.99 seconds
-----
c input_v4/binary/cnf_ALO_v4/17x17_128.cnf
c p 4809
c cnf 38722
s SATISFIABLE
c process-time: 0.16 seconds
-----
c input_v4/binary/cnf_ALO_v4/17x17_136.cnf
c p 6746
c cnf 58766
s SATISFIABLE
c process-time: 0.04 seconds
-----
c input_v4/binary/cnf_ALO_v4/17x17_138.cnf
c p 4528
c cnf 35758
s SATISFIABLE
c process-time: 1s 1.25 seconds
-----
c input_v4/binary/cnf_ALO_v4/17x17_165.cnf
c p 4809
c cnf 38428
s SATISFIABLE
c process-time: 3s 3.09 seconds
-----
c input_v4/binary/cnf_ALO_v4/17x17_166.cnf
c p 4528
c cnf 35758
s SATISFIABLE
c process-time: 4s 3.92 seconds
-----
c input_v4/binary/cnf_ALO_v4/17x17_167.cnf
c p 8978
c cnf 78739
s SATISFIABLE
c process-time: 0.05 seconds
-----
c input_v4/binary/cnf_ALO_v4/17x17_168.cnf
c p 9536
c cnf 82710
s SATISFIABLE
c process-time: 0.04 seconds
-----
c input_v4/binary/cnf_ALO_v4/17x17_175.cnf
c p 3966
c cnf 30415
s SATISFIABLE
c process-time: 35s 34.80 seconds
-----
c input_v4/binary/cnf_ALO_v4/17x17_176.cnf
c p 3685
c cnf 27583
s SATISFIABLE
c process-time: 0.46 seconds
-----
c input_v4/binary/cnf_ALO_v4/17x17_177.cnf
c p 7583
c cnf 66505
s SATISFIABLE
c process-time: 1s 0.67 seconds
-----
c input_v4/binary/cnf_ALO_v4/17x17_178.cnf
c p 8420
c cnf 74222
s SATISFIABLE
c process-time: 1s 1.10 seconds
-----
c input_v4/binary/cnf_ALO_v4/17x17_187.cnf
c p 4247
c cnf 33146
s SATISFIABLE
c process-time: 1s 0.74 seconds
-----
c input_v4/binary/cnf_ALO_v4/17x17_188.cnf
c p 4528
c cnf 35803
s SATISFIABLE
c process-time: 0.12 seconds
-----
c input_v4/binary/cnf_ALO_v4/17x17_197.cnf
c p 4528
c cnf 35848
s SATISFIABLE
c process-time: 1s 1.02 seconds
-----
c input_v4/binary/cnf_ALO_v4/17x17_198.cnf
c p 3966
c cnf 30249
s SATISFIABLE
c process-time: 3s 2.79 seconds
-----
c input_v4/binary/cnf_ALO_v4/17x17_230.cnf
c p 2848
c cnf 19860
s SATISFIABLE
c process-time: 5s 4.88 seconds
-----
c input_v4/binary/cnf_ALO_v4/17x17_240.cnf
c p 3966
c cnf 30341
s SATISFIABLE
c process-time: 1s 0.72 seconds
-----
c input_v4/binary/cnf_ALO_v4/17x17_250.cnf
c p 10875
c cnf 97886
s SATISFIABLE
c process-time: 0.03 seconds
-----
c input_v4/binary/cnf_ALO_v4/17x17_260.cnf
c p 10875
c cnf 98918
s SATISFIABLE
c process-time: 0.06 seconds
-----
c input_v4/binary/cnf_ALO_v4/17x17_270.cnf
c p 9536
c cnf 82936
s SATISFIABLE
c process-time: 0.31 seconds
-----
c input_v4/binary/cnf_ALO_v4/17x17_429.cnf
c p 6746
c cnf 58584
s SATISFIABLE
c process-time: 0.01 seconds
-----
c input_v4/binary/cnf_ALO_v4/17x17_439.cnf
c p 4528
c cnf 35893
s SATISFIABLE
c process-time: 1s 1.38 seconds
-----
c input_v4/binary/cnf_ALO_v4/17x17_449.cnf
c p 6188
c cnf 53326
s SATISFIABLE
c process-time: 0.17 seconds
-----
c input_v4/binary/cnf_ALO_v4/20x20_430.cnf
c p 12140
c cnf 112382
s SATISFIABLE
c process-time: 1s 0.85 seconds
-----
c input_v4/binary/cnf_ALO_v4/20x20_440.cnf
c p 6696
c cnf 55182
s SATISFIABLE
c process-time: 3s 3.27 seconds
-----
c input_v4/binary/cnf_ALO_v4/20x20_450.cnf
c p 7872
c cnf 66768
s SATISFIABLE
c process-time: 7s 7.17 seconds
-----
c input_v4/binary/cnf_ALO_v4/20x36_106.cnf
c p 30516
c cnf 323192
s SATISFIABLE
c process-time: 21s 21.10 seconds
-----
c input_v4/binary/cnf_ALO_v4/20x36_114.cnf
c p 30516
c cnf 323555
s SATISFIABLE
c process-time: 2s 2.33 seconds
-----
c input_v4/binary/cnf_ALO_v4/20x36_118.cnf
c p 25610
c cnf 255213
s SATISFIABLE
c process-time: 45s 45.03 seconds
-----
c input_v4/binary/cnf_ALO_v4/20x36_130.cnf
c p 25610
c cnf 255274
s SATISFIABLE
c process-time: 13s 12.82 seconds
-----
c input_v4/binary/cnf_ALO_v4/20x36_140.cnf
c p 25610
c cnf 255334
s SATISFIABLE
c process-time: 1m 23s 82.77 seconds
-----
c input_v4/binary/cnf_ALO_v4/20x36_149.cnf
c p 23480
c cnf 232109
s SATISFIABLE
c process-time: 1m 59s 118.88 seconds
-----
c input_v4/binary/cnf_ALO_v4/20x36_150.cnf
c p 19220
c cnf 185693
c process-time: 15m 899.86 seconds
UNKNOWN
-----
c input_v4/binary/cnf_ALO_v4/20x36_159.cnf
c p 25610
c cnf 255455
s SATISFIABLE
c process-time: 2m 53s 173.42 seconds
-----
c input_v4/binary/cnf_ALO_v4/20x36_160.cnf
c p 19220
c cnf 185693
c process-time: 15m 899.79 seconds
UNKNOWN
-----
c input_v4/binary/cnf_ALO_v4/20x36_170.cnf
c p 27684
c cnf 291889
s SATISFIABLE
c process-time: 1m 55s 115.28 seconds
-----
c input_v4/binary/cnf_ALO_v4/20x36_180.cnf
c p 19220
c cnf 185778
s SATISFIABLE
c process-time: 4m 9s 249.17 seconds
-----
c input_v4/binary/cnf_ALO_v4/20x36_210.cnf
c p 27684
c cnf 291889
s SATISFIABLE
c process-time: 1m 55s 115.22 seconds
-----
c input_v4/binary/cnf_ALO_v4/20x36_220.cnf
c p 30516
c cnf 322540
s SATISFIABLE
c process-time: 7s 6.51 seconds
-----
c input_v4/binary/cnf_ALO_v4/25x25_60.cnf
c p 18500
c cnf 179347
c process-time: 15m 899.81 seconds
UNKNOWN
-----
c input_v4/binary/cnf_ALO_v4/25x25_66.cnf
c p 21575
c cnf 211726
s SATISFIABLE
c process-time: 15s 15.28 seconds
-----
c input_v4/binary/cnf_ALO_v4/25x25_72.cnf
c p 27657
c cnf 288121
s SATISFIABLE
c process-time: 2s 2.44 seconds
-----
c input_v4/binary/cnf_ALO_v4/25x25_78.cnf
c p 22190
c cnf 217958
s SATISFIABLE
c process-time: 30s 30.41 seconds
-----
c input_v4/binary/cnf_ALO_v4/25x42_110.cnf
c p 70656
c cnf 781248
s SATISFIABLE
c process-time: 9s 9.36 seconds
-----
c input_v4/binary/cnf_ALO_v4/35x48_190.cnf
c p 76800
c cnf 875748
c process-time: 15m 899.77 seconds
UNKNOWN
-----
c input_v4/binary/cnf_ALO_v4/6x6_120.cnf
c p 200
c cnf 942
s SATISFIABLE
c process-time: 0.00 seconds
-----
c input_v4/binary/cnf_ALO_v4/6x6_121.cnf
c p 288
c cnf 1382
s SATISFIABLE
c process-time: 0.00 seconds
-----
c input_v4/binary/cnf_ALO_v4/6x6_122.cnf
c p 258
c cnf 1212
s SATISFIABLE
c process-time: 0.00 seconds
-----
c input_v4/binary/cnf_ALO_v4/6x6_123.cnf
c p 258
c cnf 1279
s SATISFIABLE
c process-time: 0.00 seconds
-----
c input_v4/binary/cnf_ALO_v4/6x6_124.cnf
c p 258
c cnf 1203
s SATISFIABLE
c process-time: 0.00 seconds
-----
c input_v4/binary/cnf_ALO_v4/6x6_125.cnf
c p 258
c cnf 1229
s SATISFIABLE
c process-time: 0.00 seconds
-----
c input_v4/binary/cnf_ALO_v4/6x6_130.cnf
c p 200
c cnf 942
s SATISFIABLE
c process-time: 0.00 seconds
-----
c input_v4/binary/cnf_ALO_v4/6x6_131.cnf
c p 288
c cnf 1372
s SATISFIABLE
c process-time: 0.00 seconds
-----
c input_v4/binary/cnf_ALO_v4/6x6_132.cnf
c p 200
c cnf 929
s SATISFIABLE
c process-time: 0.00 seconds
-----
c input_v4/binary/cnf_ALO_v4/6x6_133.cnf
c p 288
c cnf 1341
s SATISFIABLE
c process-time: 0.00 seconds
-----
c input_v4/binary/cnf_ALO_v4/6x6_134.cnf
c p 288
c cnf 1362
s SATISFIABLE
c process-time: 0.00 seconds
-----
c input_v4/binary/cnf_ALO_v4/6x6_135.cnf
c p 200
c cnf 929
s SATISFIABLE
c process-time: 0.00 seconds
-----
c input_v4/binary/cnf_ALO_v4/6x6_136.cnf
c p 200
c cnf 967
s SATISFIABLE
c process-time: 0.00 seconds
-----
c input_v4/binary/cnf_ALO_v4/6x6_137.cnf
c p 258
c cnf 1270
s SATISFIABLE
c process-time: 0.00 seconds
-----
c input_v4/binary/cnf_ALO_v4/6x6_138.cnf
c p 258
c cnf 1254
s SATISFIABLE
c process-time: 0.00 seconds
-----
c input_v4/binary/cnf_ALO_v4/6x6_139.cnf
c p 258
c cnf 1212
s SATISFIABLE
c process-time: 0.00 seconds
-----
c input_v4/binary/cnf_ALO_v4/6x6_140.cnf
c p 318
c cnf 1458
s SATISFIABLE
c process-time: 0.00 seconds
-----
c input_v4/binary/cnf_ALO_v4/6x6_141.cnf
c p 200
c cnf 929
s SATISFIABLE
c process-time: 0.00 seconds
-----
c input_v4/binary/cnf_ALO_v4/6x6_142.cnf
c p 258
c cnf 1220
s SATISFIABLE
c process-time: 0.00 seconds
-----
c input_v4/binary/cnf_ALO_v4/6x6_143.cnf
c p 288
c cnf 1392
s SATISFIABLE
c process-time: 0.00 seconds
-----
c input_v4/binary/cnf_ALO_v4/6x6_144.cnf
c p 288
c cnf 1404
s SATISFIABLE
c process-time: 0.00 seconds
-----
c input_v4/binary/cnf_ALO_v4/6x6_145.cnf
c p 258
c cnf 1229
s SATISFIABLE
c process-time: 0.00 seconds
-----
c input_v4/binary/cnf_ALO_v4/7x7_120.cnf
c p 405
c cnf 2032
s SATISFIABLE
c process-time: 0.00 seconds
-----
c input_v4/binary/cnf_ALO_v4/7x7_121.cnf
c p 448
c cnf 2397
s SATISFIABLE
c process-time: 0.00 seconds
-----
c input_v4/binary/cnf_ALO_v4/7x7_122.cnf
c p 448
c cnf 2434
s SATISFIABLE
c process-time: 0.00 seconds
-----
c input_v4/binary/cnf_ALO_v4/7x7_123.cnf
c p 362
c cnf 1801
s SATISFIABLE
c process-time: 0.00 seconds
-----
c input_v4/binary/cnf_ALO_v4/7x7_124.cnf
c p 405
c cnf 2105
s SATISFIABLE
c process-time: 0.00 seconds
-----
c input_v4/binary/cnf_ALO_v4/7x7_130.cnf
c p 278
c cnf 1436
s SATISFIABLE
c process-time: 0.00 seconds
-----
c input_v4/binary/cnf_ALO_v4/7x7_131.cnf
c p 405
c cnf 2157
s SATISFIABLE
c process-time: 0.00 seconds
-----
c input_v4/binary/cnf_ALO_v4/7x7_132.cnf
c p 491
c cnf 2590
s SATISFIABLE
c process-time: 0.00 seconds
-----
c input_v4/binary/cnf_ALO_v4/7x7_133.cnf
c p 405
c cnf 2188
s SATISFIABLE
c process-time: 0.00 seconds
-----
c input_v4/binary/cnf_ALO_v4/7x7_134.cnf
c p 362
c cnf 1843
s SATISFIABLE
c process-time: 0.00 seconds
-----
c input_v4/binary/cnf_ALO_v4/7x7_135.cnf
c p 448
c cnf 2471
s SATISFIABLE
c process-time: 0.00 seconds
-----
c input_v4/binary/cnf_ALO_v4/7x7_136.cnf
c p 362
c cnf 1835
s SATISFIABLE
c process-time: 0.00 seconds
-----
c input_v4/binary/cnf_ALO_v4/7x7_137.cnf
c p 362
c cnf 1860
s SATISFIABLE
c process-time: 0.00 seconds
-----
c input_v4/binary/cnf_ALO_v4/7x7_138.cnf
c p 405
c cnf 2126
s SATISFIABLE
c process-time: 0.00 seconds
-----
c input_v4/binary/cnf_ALO_v4/7x7_139.cnf
c p 405
c cnf 2157
s SATISFIABLE
c process-time: 0.00 seconds
-----
c input_v4/binary/cnf_ALO_v4/7x7_140.cnf
c p 405
c cnf 2095
s SATISFIABLE
c process-time: 0.00 seconds
-----
c input_v4/binary/cnf_ALO_v4/7x7_141.cnf
c p 405
c cnf 2105
s SATISFIABLE
c process-time: 0.00 seconds
-----
c input_v4/binary/cnf_ALO_v4/7x7_142.cnf
c p 405
c cnf 2126
s SATISFIABLE
c process-time: 0.00 seconds
-----
c input_v4/binary/cnf_ALO_v4/7x7_143.cnf
c p 448
c cnf 2472
s SATISFIABLE
c process-time: 0.00 seconds
-----
c input_v4/binary/cnf_ALO_v4/7x7_144.cnf
c p 405
c cnf 2126
s SATISFIABLE
c process-time: 0.00 seconds
-----
c input_v4/binary/cnf_ALO_v4/7x7_145.cnf
c p 405
c cnf 2094
s SATISFIABLE
c process-time: 0.00 seconds
-----
c input_v4/binary/cnf_ALO_v4/8x8_120.cnf
c p 656
c cnf 3696
s SATISFIABLE
c process-time: 0.00 seconds
-----
c input_v4/binary/cnf_ALO_v4/8x8_121.cnf
c p 656
c cnf 3697
s SATISFIABLE
c process-time: 0.00 seconds
-----
c input_v4/binary/cnf_ALO_v4/8x8_122.cnf
c p 656
c cnf 3812
s SATISFIABLE
c process-time: 0.00 seconds
-----
c input_v4/binary/cnf_ALO_v4/8x8_123.cnf
c p 656
c cnf 3653
s SATISFIABLE
c process-time: 0.00 seconds
-----
c input_v4/binary/cnf_ALO_v4/8x8_124.cnf
c p 540
c cnf 3108
s SATISFIABLE
c process-time: 0.00 seconds
-----
c input_v4/binary/cnf_ALO_v4/8x8_130.cnf
c p 540
c cnf 2993
s SATISFIABLE
c process-time: 0.00 seconds
-----
c input_v4/binary/cnf_ALO_v4/8x8_131.cnf
c p 656
c cnf 3696
s SATISFIABLE
c process-time: 0.00 seconds
-----
c input_v4/binary/cnf_ALO_v4/8x8_132.cnf
c p 598
c cnf 3318
s SATISFIABLE
c process-time: 0.00 seconds
-----
c input_v4/binary/cnf_ALO_v4/8x8_133.cnf
c p 540
c cnf 3035
s SATISFIABLE
c process-time: 0.00 seconds
-----
c input_v4/binary/cnf_ALO_v4/8x8_134.cnf
c p 656
c cnf 3624
s SATISFIABLE
c process-time: 0.00 seconds
-----
c input_v4/binary/cnf_ALO_v4/8x8_135.cnf
c p 540
c cnf 2983
s SATISFIABLE
c process-time: 0.00 seconds
-----
c input_v4/binary/cnf_ALO_v4/8x8_136.cnf
c p 598
c cnf 3343
s SATISFIABLE
c process-time: 0.00 seconds
-----
c input_v4/binary/cnf_ALO_v4/8x8_137.cnf
c p 656
c cnf 3696
s SATISFIABLE
c process-time: 0.00 seconds
-----
c input_v4/binary/cnf_ALO_v4/8x8_138.cnf
c p 482
c cnf 2620
s SATISFIABLE
c process-time: 0.00 seconds
-----
c input_v4/binary/cnf_ALO_v4/8x8_139.cnf
c p 656
c cnf 3653
s SATISFIABLE
c process-time: 0.00 seconds
-----
c input_v4/binary/cnf_ALO_v4/8x8_140.cnf
c p 598
c cnf 3418
s SATISFIABLE
c process-time: 0.00 seconds
-----
c input_v4/binary/cnf_ALO_v4/8x8_141.cnf
c p 656
c cnf 3797
s SATISFIABLE
c process-time: 0.00 seconds
-----
c input_v4/binary/cnf_ALO_v4/8x8_142.cnf
c p 598
c cnf 3380
s SATISFIABLE
c process-time: 0.00 seconds
-----
c input_v4/binary/cnf_ALO_v4/8x8_143.cnf
c p 760
c cnf 4518
s SATISFIABLE
c process-time: 0.00 seconds
-----
c input_v4/binary/cnf_ALO_v4/8x8_144.cnf
c p 598
c cnf 3430
s SATISFIABLE
c process-time: 0.00 seconds
-----
c input_v4/binary/cnf_ALO_v4/8x8_145.cnf
c p 656
c cnf 3783
s SATISFIABLE
c process-time: 0.00 seconds
-----
c input_v4/binary/cnf_ALO_v4/9x9_120.cnf
c p 768
c cnf 4582
s SATISFIABLE
c process-time: 0.00 seconds
-----
c input_v4/binary/cnf_ALO_v4/9x9_121.cnf
c p 981
c cnf 6128
s SATISFIABLE
c process-time: 0.00 seconds
-----
c input_v4/binary/cnf_ALO_v4/9x9_122.cnf
c p 981
c cnf 6079
s SATISFIABLE
c process-time: 0.00 seconds
-----
c input_v4/binary/cnf_ALO_v4/9x9_123.cnf
c p 843
c cnf 5009
s SATISFIABLE
c process-time: 0.00 seconds
-----
c input_v4/binary/cnf_ALO_v4/9x9_124.cnf
c p 1054
c cnf 6675
s SATISFIABLE
c process-time: 0.00 seconds
-----
c input_v4/binary/cnf_ALO_v4/9x9_130.cnf
c p 981
c cnf 6112
s SATISFIABLE
c process-time: 0.00 seconds
-----
c input_v4/binary/cnf_ALO_v4/9x9_131.cnf
c p 1054
c cnf 6564
s SATISFIABLE
c process-time: 0.00 seconds
-----
c input_v4/binary/cnf_ALO_v4/9x9_132.cnf
c p 1054
c cnf 6619
s SATISFIABLE
c process-time: 0.00 seconds
-----
c input_v4/binary/cnf_ALO_v4/9x9_133.cnf
c p 981
c cnf 6178
s SATISFIABLE
c process-time: 0.00 seconds
-----
c input_v4/binary/cnf_ALO_v4/9x9_134.cnf
c p 768
c cnf 4657
s SATISFIABLE
c process-time: 0.00 seconds
-----
c input_v4/binary/cnf_ALO_v4/9x9_135.cnf
c p 843
c cnf 5110
s SATISFIABLE
c process-time: 0.00 seconds
-----
c input_v4/binary/cnf_ALO_v4/9x9_136.cnf
c p 843
c cnf 5125
s SATISFIABLE
c process-time: 0.00 seconds
-----
c input_v4/binary/cnf_ALO_v4/9x9_137.cnf
c p 768
c cnf 4557
s SATISFIABLE
c process-time: 0.00 seconds
-----
c input_v4/binary/cnf_ALO_v4/9x9_138.cnf
c p 843
c cnf 5139
s SATISFIABLE
c process-time: 0.00 seconds
-----
c input_v4/binary/cnf_ALO_v4/9x9_139.cnf
c p 981
c cnf 6013
s SATISFIABLE
c process-time: 0.00 seconds
-----
c input_v4/binary/cnf_ALO_v4/9x9_140.cnf
c p 981
c cnf 6260
s SATISFIABLE
c process-time: 0.00 seconds
-----
c input_v4/binary/cnf_ALO_v4/9x9_141.cnf
c p 768
c cnf 4569
s SATISFIABLE
c process-time: 0.00 seconds
-----
c input_v4/binary/cnf_ALO_v4/9x9_142.cnf
c p 1054
c cnf 6638
s SATISFIABLE
c process-time: 0.00 seconds
-----
c input_v4/binary/cnf_ALO_v4/9x9_143.cnf
c p 843
c cnf 5154
s SATISFIABLE
c process-time: 0.00 seconds
-----
c input_v4/binary/cnf_ALO_v4/9x9_144.cnf
c p 981
c cnf 6128
s SATISFIABLE
c process-time: 0.00 seconds
-----
c input_v4/binary/cnf_ALO_v4/9x9_145.cnf
c p 843
c cnf 5067
s SATISFIABLE
c process-time: 0.00 seconds
-----
UNKNOWN
-----

